/*********************************************
 * OPL 12.6.0.0 Data
 * Author: Adrian Rodriguez Bazaga, Pau Rodriguez Esmerats
 * Creation Date: 06/12/2017 at 23:02:54
 *********************************************/

nNurses=107;
maxConsec=2;
maxPresence=7;
maxHours=5;
minHours=1;
hours=24;
demand= [14 15 22 25 15 22 25 15 17 12 0 1 2 2 5 2 5 1 5 1 15 30 18 17  ];
